n = 5;
m = 5;

opiniones_iniciales = [0, 1, 0, 1, 3];

valores_opiniones = [0.436, 0.462, 0.566, 0.756, 0.819];

costos_extras = [14.736, 3.593, 9.041, 5.082, 11.407];

costos_desplazamiento = [|
    0.0, 3.387, 3.544, 2.307, 4.364
    | 3.311, 0.0, 3.711, 4.986, 4.826
    | 1.268, 4.013, 0.0, 2.958, 3.932
    | 4.8, 2.986, 4.087, 0.0, 1.667
    | 4.535, 2.507, 1.615, 4.926, 0.0 |];

ct = 75.43;

maxMovs = 39;
